Executando Fernandes MODIFICADO
Rodando pra 1h
Optimize a model with 135 rows, 140 columns and 1716 nonzeros
Coefficient statistics:
  Matrix range    [1e+00, 1e+07]
  Objective range [2e-01, 2e-01]
  Bounds range    [1e+00, 1e+07]
  RHS range       [1e+00, 4e+00]
Found heuristic solution: objective 303.001
Presolve removed 43 rows and 34 columns
Presolve time: 0.00s
Presolved: 92 rows, 106 columns, 1078 nonzeros
Variable types: 20 continuous, 86 integer (80 binary)

Root relaxation: objective 0.000000e+00, 30 iterations, 0.00 seconds

    Nodes    |    Current Node    |     Objective Bounds      |     Work
 Expl Unexpl |  Obj  Depth IntInf | Incumbent    BestBd   Gap | It/Node Time

     0     0    0.00000    0   13  303.00061    0.00000   100%     -    0s
H    0     0                     267.0005340    0.00000   100%     -    0s
H    0     0                     148.5002970    0.00000   100%     -    0s
     0     0    0.00000    0   15  148.50030    0.00000   100%     -    0s
     0     0    0.00000    0   15  148.50030    0.00000   100%     -    0s
     0     0    0.00000    0   26  148.50030    0.00000   100%     -    0s
     0     0    1.21919    0   31  148.50030    1.21919  99.2%     -    0s
     0     0    2.41401    0   36  148.50030    2.41401  98.4%     -    0s
     0     0    2.60356    0   35  148.50030    2.60356  98.2%     -    0s
     0     0    8.49013    0   40  148.50030    8.49013  94.3%     -    0s
     0     0    9.28073    0   47  148.50030    9.28073  93.8%     -    0s
     0     0   10.33117    0   46  148.50030   10.33117  93.0%     -    0s
     0     0   10.71130    0   43  148.50030   10.71130  92.8%     -    0s
     0     0   11.05011    0   45  148.50030   11.05011  92.6%     -    0s
     0     0   11.09644    0   46  148.50030   11.09644  92.5%     -    0s
     0     0   13.73827    0   48  148.50030   13.73827  90.7%     -    0s
     0     0   14.75628    0   52  148.50030   14.75628  90.1%     -    0s
     0     0   18.02860    0   54  148.50030   18.02860  87.9%     -    0s
     0     0   19.42693    0   54  148.50030   19.42693  86.9%     -    0s
     0     0   21.67562    0   54  148.50030   21.67562  85.4%     -    0s
     0     0   21.90931    0   55  148.50030   21.90931  85.2%     -    0s
     0     0   22.76600    0   54  148.50030   22.76600  84.7%     -    0s
     0     0   23.17368    0   54  148.50030   23.17368  84.4%     -    0s
     0     0   23.73285    0   57  148.50030   23.73285  84.0%     -    0s
     0     0   23.88487    0   59  148.50030   23.88487  83.9%     -    0s
     0     0   25.24115    0   57  148.50030   25.24115  83.0%     -    0s
     0     0   25.43935    0   60  148.50030   25.43935  82.9%     -    0s
     0     0   25.73886    0   62  148.50030   25.73886  82.7%     -    0s
     0     0   25.73886    0   61  148.50030   25.73886  82.7%     -    0s
     0     2   25.73886    0   60  148.50030   25.73886  82.7%     -    0s
H  190   131                     147.1669610   44.19278  70.0%  17.5    0s
H  514   245                     146.5002930   53.46990  63.5%  14.0    0s
H 1126   355                     145.0002900   58.06430  60.0%  17.3    1s
H 2873   852                     144.0002880   76.15754  47.1%  16.4    3s
  4905  1313     cutoff   31       144.00029   84.96531  41.0%  15.4    5s
H 6956  1648                     143.3336200   91.61631  36.1%  14.8    6s
H 7457  1693                     142.6669520   92.87917  34.9%  14.6    7s
 10202  2023     cutoff   25       142.66695   98.06453  31.3%  14.1   10s
 15592  2206  118.04716   27   29  142.66695  107.27090  24.8%  13.7   15s
 22140  2001  120.06907   27   26  142.66695  117.19903  17.9%  13.1   20s
 29824   991     cutoff   26       142.66695  131.15171  8.07%  12.2   25s

Cutting planes:
  Gomory: 3
  MIR: 241
  Flow cover: 230
  Flow path: 4
  Zero half: 4
  Network: 13

Explored 32840 nodes (383864 simplex iterations) in 26.61 seconds
Thread count was 1 (of 4 available processors)

Optimal solution found (tolerance 1.00e-04)
Best objective 1.426669520000e+02, best bound 1.426669520000e+02, gap 0.0%
Tempo: 26.58 segundos

0 2 0 56 76 17 79 26 30 26 71 6 
0 3 22 70 30 55 6 40 78 10 32 42 
1 3 0 76 0 78 14 12 64 42 12 6 
1 4 72 36 15 48 32 49 71 20 20 90 
(94 238 121 198 131 127 243 98 135 144 )

